n=40;
demand=2;
horizon=40;
est=[34,19,13,28,14,4,12,2,19,33,7,5,24,1,14,0,0,4,6,33,37,37,6,21,22,13,23,11,9,4,11,26,13,32,31,38,5,38,39,22];
processing_time=[3,9,11,7,15,35,15,6,16,1,19,20,16,14,11,38,14,10,5,6,3,1,11,5,3,1,5,1,15,26,7,5,8,5,3,1,2,2,1,7];
lct=[40,38,36,38,32,40,33,21,38,36,32,34,40,29,40,38,37,16,39,39,40,39,34,35,31,23,37,13,32,38,27,31,35,37,38,39,16,40,40,30];
